####################################################################### 
# 
# This file contains crystal structure data downloaded from the 
# Cambridge Structural Database (CSD) hosted by the Cambridge 
# Crystallographic Data Centre (CCDC).
# 
# Full information about CCDC data access policies and citation 
# guidelines are available at http://www.ccdc.cam.ac.uk/access/V1 
# 
# Audit and citation data items may have been added by the CCDC. 
# Please retain this information to preserve the provenance of 
# this file and to allow appropriate attribution of the data. 
# 
#######################################################################

data_I
_audit_block_doi                 10.5517/ccdc.csd.cc1q96qy
_database_code_depnum_ccdc_archive 'CCDC 1587780'
loop_
_citation_id
_citation_doi
_citation_year
1 10.1107/S2053229617017077 2018
#Added by publCIF

_audit_update_record             
;
2017-11-28 deposited with the CCDC.	2023-08-02 downloaded from the CCDC.
;
_iucr_compatibility_tag          ACTA95

#==============================================================================


# start Validation Reply Form
_vrf_DIFF019_I                   
;
PROBLEM: _diffrn_standards_number is missing
RESPONSE: area detector data
;
_vrf_DIFF020_I                   
;
PROBLEM: _diffrn_standards_interval_count and
RESPONSE: area detector data
;
_vrf_DIFF022_I                   
;
PROBLEM: _diffrn_standards_decay_% is missing
RESPONSE: area detector data
;
#Added by publCIF

loop_
_geom_extra_tableC_col_1
_geom_extra_tableC_col_2
_geom_extra_tableC_col_3
_geom_extra_tableC_col_4
_geom_extra_tableC_col_5
'<i>T</i> (K)' O11...O21^i^ O12...O22^iii^ O31...F11^ii^ O32...F12^iv^
210(2) 2.645(5) 2.661(5) 3.054(5) 3.322(6)
190(2) 2.648(5) 2.660(5) 3.050(5) 3.315(5)
170(2) 2.652(4) 2.657(5) 3.047(4) 3.307(5)
150(2) 2.643(4) 2.659(4) 3.044(4) 3.297(4)
130(2) 2.645(4) 2.658(4) 3.037(4) 3.294(4)
110(2) 2.647(4) 2.659(4) 3.030(3) 3.287(4)

_geom_extra_table_head_C         
;
Temperature-dependent intermolecular hydrogen-bond distances
;

_geom_table_footnote_C           
;
Symmetry codes: (i) -<i>x</i>+1, -<i>y</i>+1, -<i>z</i>;
(ii) <i>x</i>, -<i>y</i>+3/2, <i>z</i>-1/2;
(iii) -<i>x</i>, -<i>y</i>, -<i>z</i>;
(iv) <i>x</i>, -<i>y</i>+1/2, <i>z</i>-1/2.
;

loop_
_geom_extra_tableB_col_1
_geom_extra_tableB_col_2
_geom_extra_tableB_col_3
_geom_extra_tableB_col_4
_geom_extra_tableB_col_5
_geom_extra_tableB_col_6
_geom_extra_tableB_col_7
'<i>T</i> (K)' '<i>a</i> (\%A)' '<i>b</i> (\%A)' '<i>c</i> (\%A)' '\b (\%)'
'<i>V</i> (\%A^3^)' 'Twin obliquity (\%)'
210(2) 23.241(4) 3.7219(10) 15.684(2) 109.742(9) 1276.9(5) 0.022
190(2) 23.229(5) 3.7120(9) 15.6765(18) 109.750(10) 1272.2(4) 0.029
170(2) 23.215(4) 3.7031(6) 15.6654(15) 109.765(8) 1267.4(3) 0.047
150(2) 23.201(3) 3.6943(5) 15.6528(11) 109.759(7) 1262.6(2) 0.045
130(2) 23.189(3) 3.6864(5) 15.6401(13) 109.746(8) 1258.3(2) 0.038
110(2) 23.180(3) 3.6795(4) 15.6317(17) 109.735(8) 1254.9(3) 0.030

_geom_extra_table_head_B         
;
Temperature-dependent unit-cell parameters of polymorph II
;

_geom_table_footnote_B           
;
The crystal was cooled from 210(2) to 110(2) K in steps of 20 K. Unit-cell
parameters were obtained from 360\% \f scans by post-refinement of integrated
data with <i>EVAL15</i> (4148--5093 reflections; Schreurs <i>et al.</i>,
2010). The
detector position was kept fixed during the measurement.
;

_geom_table_footnote_A           
;
Reflection indices are based on the orthorhombic unit cell setting with
<i>a</i> = 15.63, <i>b</i> = 43.63 and <i>c</i> = 3.68 \%A. Reflection 
intensities were derived from calculated structure factors with the twin law 
applied and a perfect twin fraction of 50%.
;

loop_
_geom_extra_tableA_col_1
_geom_extra_tableA_col_2
_geom_extra_tableA_col_3
_geom_extra_tableA_col_4
<i>hkl</i> '<i>h</i>+<i>k</i> = 2<i>n</i>' <i>hk</i>0
'<i>h</i>+<i>k</i> =  2<i>n</i>'
0<i>kl</i> '<i>k</i> = 2<i>n</i>' <i>h</i>00 '<i>h</i> = 2<i>n</i>'
<i>h</i>0<i>l</i> '<i>h</i> = 2<i>n</i>' 0<i>k</i>0 '<i>k</i> = 2<i>n</i>'
<i>hk</i>0 '<i>h</i> = 2<i>n</i>' 00<i>l</i> '<i>l</i> = 2<i>n</i>'
<i>hk</i>0 '<i>k</i> = 2<i>n</i>' . .




_geom_extra_table_head_A         
;
Reflection conditions in the twinned data set
;
_publcif_datablock.id            {bb6a9713-0b45-4de2-98e9-1f53c436fa95}

# publcif _publ_body_element loop end

_audit_creation_method           SHELXL-2017/1
_shelx_SHELXL_version_number     2017/1
_chemical_name_systematic        
; 
5-Fluorosalicylic acid
;
_chemical_name_common            ?
_chemical_melting_point          ?
_chemical_formula_iupac          'C7 H5 F O3'
_chemical_formula_moiety         'C7 H5 F O3'
_chemical_formula_sum            'C7 H5 F O3'
_chemical_formula_weight         156.11

loop_
_atom_type_symbol
_atom_type_description
_atom_type_scat_dispersion_real
_atom_type_scat_dispersion_imag
_atom_type_scat_source
C C 0.0033 0.0016 'International Tables Vol C Tables 4.2.6.8 and 6.1.1.4'
H H 0.0000 0.0000 'International Tables Vol C Tables 4.2.6.8 and 6.1.1.4'
F F 0.0171 0.0103 'International Tables Vol C Tables 4.2.6.8 and 6.1.1.4'
O O 0.0106 0.0060 'International Tables Vol C Tables 4.2.6.8 and 6.1.1.4'

_space_group_crystal_system      monoclinic
_space_group_IT_number           14
_space_group_name_H-M_alt        'P 21/c'
_space_group_name_Hall           '-P 2ybc'

_shelx_space_group_comment       
;
The symmetry employed for this shelxl refinement is uniquely defined
by the following loop, which should always be used as a source of
symmetry information in preference to the above space-group names.
They are only intended as comments.
;

loop_
_space_group_symop_operation_xyz
'x, y, z'
'-x, y+1/2, -z+1/2'
'-x, -y, -z'
'x, -y-1/2, z-1/2'

_cell_length_a                   23.1729(14)
_cell_length_b                   3.6802(3)
_cell_length_c                   15.6312(8)
_cell_angle_alpha                90
_cell_angle_beta                 109.728(6)
_cell_angle_gamma                90
_cell_volume                     1254.79(15)
_cell_formula_units_Z            8
_cell_measurement_temperature    110(2)
_cell_measurement_reflns_used    15239
_cell_measurement_theta_min      1.83
_cell_measurement_theta_max      27.48

loop_
_diffrn_orient_matrix_type
_diffrn_orient_matrix_UB_11
_diffrn_orient_matrix_UB_12
_diffrn_orient_matrix_UB_13
_diffrn_orient_matrix_UB_21
_diffrn_orient_matrix_UB_22
_diffrn_orient_matrix_UB_23
_diffrn_orient_matrix_UB_31
_diffrn_orient_matrix_UB_32
_diffrn_orient_matrix_UB_33
'Nonius RMAT' -0.0330460 0.1829725 -0.0060045 -0.0311950 -0.1744366 -0.0382383
-0.0060666 -0.0997194 0.0558718

_exptl_crystal_description       plate
_exptl_crystal_colour            colourless
_exptl_crystal_density_meas      ?
_exptl_crystal_density_method    ?
_exptl_crystal_density_diffrn    1.653
_exptl_crystal_F_000             640
_exptl_transmission_factor_min   ?
_exptl_transmission_factor_max   ?
_exptl_crystal_size_max          0.27
_exptl_crystal_size_mid          0.21
_exptl_crystal_size_min          0.04
_exptl_absorpt_coefficient_mu    0.148
_shelx_estimated_absorpt_T_min   ?
_shelx_estimated_absorpt_T_max   ?
_exptl_absorpt_correction_type   numerical
_exptl_absorpt_correction_T_min  0.6939
_exptl_absorpt_correction_T_max  1.0000
_exptl_absorpt_process_details   
;
(<i>SADABS</i>; Krause <i>et al.</i>,  2015)
;
_exptl_absorpt_special_details   ?
_diffrn_ambient_temperature      110(2)
_diffrn_radiation_wavelength     0.71073
_diffrn_radiation_type           MoK\a
_diffrn_source                   'sealed tube'
_diffrn_measurement_device_type  'Bruker Kappa APEXII'
_diffrn_measurement_method       '\f and \w scans'
_diffrn_detector_area_resol_mean ?
_diffrn_reflns_number            30602
_diffrn_reflns_av_unetI/netI     0.0347
_diffrn_reflns_av_R_equivalents  0.0642
_diffrn_reflns_limit_h_min       -30
_diffrn_reflns_limit_h_max       30
_diffrn_reflns_limit_k_min       -4
_diffrn_reflns_limit_k_max       4
_diffrn_reflns_limit_l_min       -20
_diffrn_reflns_limit_l_max       19
_diffrn_reflns_theta_min         1.867
_diffrn_reflns_theta_max         27.491
_diffrn_reflns_theta_full        25.242
_diffrn_measured_fraction_theta_max 1.000
_diffrn_measured_fraction_theta_full 1.000
_diffrn_reflns_Laue_measured_fraction_max 1.000
_diffrn_reflns_Laue_measured_fraction_full 1.000
_diffrn_reflns_point_group_measured_fraction_max 1.000
_diffrn_reflns_point_group_measured_fraction_full 1.000
_reflns_number_total             2884
_reflns_number_gt                2386
_reflns_threshold_expression     'I > 2\s(I)'
_reflns_Friedel_coverage         0.000
_reflns_Friedel_fraction_max     .
_reflns_Friedel_fraction_full    .

_reflns_special_details          
;
 Reflections were merged by SHELXL according to the crystal
 class for the calculation of statistics and refinement.
 
 _reflns_Friedel_fraction is defined as the number of unique
 Friedel pairs measured divided by the number that would be
 possible theoretically, ignoring centric projections and
 systematic absences.
;

_computing_data_collection       
;
APEX3 (Bruker, 2016)
;

_computing_cell_refinement       
;
PEAKREF (Schreurs, 2016)
;

_computing_data_reduction        
;
EVAL15 (Schreurs <i>et al.</i>,  2010) and SADABS (Krause <i>et al.</i>,
2015)
;

_computing_structure_solution    
;
SHELXT (Sheldrick, 2015a)
;

_computing_structure_refinement  
;
SHELXL2017 (Sheldrick, 2015b)
;

_computing_molecular_graphics    
;
PLATON (Spek, 2009)
;

_computing_publication_material  
;
publCIF (Westrip, 2010)
;

_refine_special_details          
;
 efined as a 2-component twin
;
_refine_ls_structure_factor_coef Fsqd
_refine_ls_matrix_type           full
_refine_ls_weighting_scheme      calc
_refine_ls_weighting_details     
'w=1/[\s^2^(Fo^2^)+(0.0731P)^2^+0.4868P] where P=(Fo^2^+2Fc^2^)/3'
_atom_sites_solution_primary     dual
_atom_sites_solution_secondary   difmap
_atom_sites_solution_hydrogens   difmap
_refine_ls_hydrogen_treatment    constr
_refine_ls_extinction_method     none
_refine_ls_extinction_coef       .
_refine_ls_number_reflns         2884
_refine_ls_number_parameters     204
_refine_ls_number_restraints     0
_refine_ls_R_factor_all          0.0631
_refine_ls_R_factor_gt           0.0473
_refine_ls_wR_factor_ref         0.1226
_refine_ls_wR_factor_gt          0.1133
_refine_ls_goodness_of_fit_ref   1.053
_refine_ls_restrained_S_all      1.053
_refine_ls_shift/su_max          0.000
_refine_ls_shift/su_mean         0.000

loop_
_atom_site_label
_atom_site_type_symbol
_atom_site_fract_x
_atom_site_fract_y
_atom_site_fract_z
_atom_site_U_iso_or_equiv
_atom_site_adp_type
_atom_site_occupancy
_atom_site_site_symmetry_order
_atom_site_calc_flag
_atom_site_refinement_flags_posn
_atom_site_refinement_flags_adp
_atom_site_refinement_flags_occupancy
_atom_site_disorder_assembly
_atom_site_disorder_group
F11 F 0.37637(8) 0.4284(5) 0.32426(10) 0.0235(4) Uani 1 1 d . . . . .
O11 O 0.49467(9) 0.4087(5) 0.11432(12) 0.0198(5) Uani 1 1 d . . . . .
H11O H 0.518303 0.390822 0.083928 0.030 Uiso 1 1 calc R U . . .
O21 O 0.43470(9) 0.6756(6) -0.01370(14) 0.0189(5) Uani 1 1 d . . . . .
O31 O 0.32536(9) 0.9067(6) -0.02534(13) 0.0189(4) Uani 1 1 d . . . . .
H31O H 0.355419 0.882858 -0.043422 0.028 Uiso 1 1 calc R U . . .
C11 C 0.39756(12) 0.6221(7) 0.10943(18) 0.0137(5) Uani 1 1 d . . . . .
C21 C 0.34068(12) 0.7843(7) 0.06108(19) 0.0139(6) Uani 1 1 d . . . . .
C31 C 0.29715(12) 0.8263(7) 0.1037(2) 0.0170(6) Uani 1 1 d . . . . .
H31 H 0.258631 0.933751 0.071594 0.020 Uiso 1 1 calc R U . . .
C41 C 0.30959(12) 0.7131(8) 0.19201(19) 0.0160(6) Uani 1 1 d . . . . .
H41 H 0.280138 0.745701 0.221390 0.019 Uiso 1 1 calc R U . . .
C51 C 0.36549(12) 0.5513(7) 0.23758(18) 0.0166(6) Uani 1 1 d . . . . .
C61 C 0.40960(12) 0.5044(7) 0.19938(17) 0.0145(5) Uani 1 1 d . . . . .
H61 H 0.447691 0.394723 0.232620 0.017 Uiso 1 1 calc R U . . .
C71 C 0.44369(12) 0.5704(7) 0.06512(18) 0.0138(5) Uani 1 1 d . . . . .
F12 F 0.12270(8) -0.1498(5) 0.44878(11) 0.0271(5) Uani 1 1 d . . . . .
O12 O 0.00509(9) -0.1177(6) 0.11867(12) 0.0210(5) Uani 1 1 d . . . . .
H12O H -0.020011 -0.100787 0.065548 0.032 Uiso 1 1 calc R U . . .
O22 O 0.06700(9) 0.1506(6) 0.05439(14) 0.0202(5) Uani 1 1 d . . . . .
O32 O 0.17965(9) 0.2931(6) 0.15292(14) 0.0213(5) Uani 1 1 d . . . . .
H32O H 0.148360 0.312280 0.106257 0.032 Uiso 1 1 calc R U . . .
C12 C 0.10439(12) 0.0503(7) 0.21348(18) 0.0149(5) Uani 1 1 d . . . . .
C22 C 0.16289(13) 0.1804(7) 0.2237(2) 0.0157(6) Uani 1 1 d . . . . .
C32 C 0.20716(12) 0.1943(8) 0.3101(2) 0.0173(6) Uani 1 1 d . . . . .
H32 H 0.247111 0.281184 0.317137 0.021 Uiso 1 1 calc R U . . .
C42 C 0.19354(14) 0.0831(8) 0.3856(2) 0.0207(6) Uani 1 1 d . . . . .
H42 H 0.223687 0.092787 0.444439 0.025 Uiso 1 1 calc R U . . .
C52 C 0.13573(13) -0.0412(7) 0.37363(18) 0.0172(6) Uani 1 1 d . . . . .
C62 C 0.09072(12) -0.0621(7) 0.29029(19) 0.0159(5) Uani 1 1 d . . . . .
H62 H 0.051093 -0.150876 0.284567 0.019 Uiso 1 1 calc R U . . .
C72 C 0.05744(12) 0.0321(7) 0.12241(18) 0.0150(6) Uani 1 1 d . . . . .

loop_
_atom_site_aniso_label
_atom_site_aniso_U_11
_atom_site_aniso_U_22
_atom_site_aniso_U_33
_atom_site_aniso_U_23
_atom_site_aniso_U_13
_atom_site_aniso_U_12
F11 0.0365(10) 0.0293(9) 0.0086(9) 0.0004(7) 0.0126(7) -0.0006(7)
O11 0.0203(10) 0.0295(11) 0.0129(11) 0.0054(8) 0.0100(8) 0.0071(8)
O21 0.0215(11) 0.0258(11) 0.0119(11) 0.0068(8) 0.0089(8) 0.0058(8)
O31 0.0213(10) 0.0236(10) 0.0141(10) 0.0052(8) 0.0088(8) 0.0051(8)
C11 0.0193(13) 0.0119(12) 0.0104(13) -0.0022(9) 0.0059(10) -0.0026(10)
C21 0.0204(13) 0.0105(12) 0.0117(14) -0.0034(10) 0.0068(11) -0.0009(10)
C31 0.0208(14) 0.0125(13) 0.0170(15) -0.0004(10) 0.0055(12) 0.0023(10)
C41 0.0185(12) 0.0168(13) 0.0175(14) -0.0049(10) 0.0124(11) -0.0044(10)
C51 0.0264(14) 0.0158(12) 0.0084(12) -0.0006(10) 0.0068(11) -0.0058(11)
C61 0.0200(13) 0.0131(12) 0.0090(12) -0.0022(10) 0.0030(10) 0.0000(10)
C71 0.0177(13) 0.0126(12) 0.0116(13) -0.0031(10) 0.0058(10) -0.0008(10)
F12 0.0381(11) 0.0341(11) 0.0119(9) 0.0025(7) 0.0122(8) -0.0026(8)
O12 0.0216(11) 0.0300(12) 0.0122(11) 0.0000(8) 0.0066(8) -0.0046(8)
O22 0.0263(11) 0.0238(11) 0.0129(11) 0.0011(8) 0.0098(9) -0.0046(8)
O32 0.0216(10) 0.0299(12) 0.0149(11) 0.0011(8) 0.0095(9) -0.0050(9)
C12 0.0227(14) 0.0096(12) 0.0138(13) -0.0012(9) 0.0080(11) 0.0017(10)
C22 0.0202(14) 0.0125(13) 0.0175(15) -0.0015(10) 0.0103(12) -0.0002(10)
C32 0.0179(14) 0.0142(14) 0.0194(16) -0.0020(10) 0.0056(12) -0.0029(10)
C42 0.0308(16) 0.0146(14) 0.0155(15) -0.0012(10) 0.0061(12) 0.0017(11)
C52 0.0290(14) 0.0116(13) 0.0140(13) 0.0014(10) 0.0112(12) 0.0026(11)
C62 0.0218(14) 0.0114(12) 0.0167(13) -0.0016(10) 0.0095(12) -0.0003(10)
C72 0.0200(13) 0.0122(13) 0.0159(14) -0.0011(10) 0.0100(11) -0.0006(10)

_geom_special_details            
;
 All esds (except the esd in the dihedral angle between two l.s. planes)
 are estimated using the full covariance matrix.  The cell esds are taken
 into account individually in the estimation of esds in distances, angles
 and torsion angles; correlations between esds in cell parameters are only
 used when they are defined by crystal symmetry.  An approximate (isotropic)
 treatment of cell esds is used for estimating esds involving l.s. planes.
;

loop_
_geom_bond_atom_site_label_1
_geom_bond_atom_site_label_2
_geom_bond_distance
_geom_bond_site_symmetry_2
_geom_bond_publ_flag
F11 C51 1.369(3) . y
O11 C71 1.314(3) . y
O11 H11O 0.8400 . ?
O21 C71 1.240(3) . y
O31 C21 1.353(3) . y
O31 H31O 0.8400 . ?
C11 C61 1.406(4) . ?
C11 C21 1.411(4) . ?
C11 C71 1.469(4) . ?
C21 C31 1.392(4) . ?
C31 C41 1.376(4) . ?
C31 H31 0.9500 . ?
C41 C51 1.385(4) . ?
C41 H41 0.9500 . ?
C51 C61 1.358(4) . ?
C61 H61 0.9500 . ?
F12 C52 1.367(3) . y
O12 C72 1.316(3) . y
O12 H12O 0.8400 . ?
O22 C72 1.236(3) . y
O32 C22 1.356(3) . y
O32 H32O 0.8400 . ?
C12 C22 1.395(4) . ?
C12 C62 1.404(4) . ?
C12 C72 1.473(4) . ?
C22 C32 1.394(4) . ?
C32 C42 1.382(4) . ?
C32 H32 0.9500 . ?
C42 C52 1.368(4) . ?
C42 H42 0.9500 . ?
C52 C62 1.369(4) . ?
C62 H62 0.9500 . ?

loop_
_geom_angle_atom_site_label_1
_geom_angle_atom_site_label_2
_geom_angle_atom_site_label_3
_geom_angle
_geom_angle_site_symmetry_1
_geom_angle_site_symmetry_3
_geom_angle_publ_flag
C71 O11 H11O 109.5 . . ?
C21 O31 H31O 109.5 . . ?
C61 C11 C21 120.0(2) . . ?
C61 C11 C71 120.1(2) . . ?
C21 C11 C71 119.9(2) . . ?
O31 C21 C31 116.9(2) . . ?
O31 C21 C11 123.9(2) . . ?
C31 C21 C11 119.2(3) . . ?
C41 C31 C21 120.4(3) . . ?
C41 C31 H31 119.8 . . ?
C21 C31 H31 119.8 . . ?
C31 C41 C51 119.3(2) . . ?
C31 C41 H41 120.4 . . ?
C51 C41 H41 120.4 . . ?
C61 C51 F11 118.6(2) . . ?
C61 C51 C41 122.7(2) . . ?
F11 C51 C41 118.6(2) . . ?
C51 C61 C11 118.4(2) . . ?
C51 C61 H61 120.8 . . ?
C11 C61 H61 120.8 . . ?
O21 C71 O11 122.6(2) . . ?
O21 C71 C11 121.5(2) . . ?
O11 C71 C11 115.9(2) . . ?
C72 O12 H12O 109.5 . . ?
C22 O32 H32O 109.5 . . ?
C22 C12 C62 119.6(2) . . ?
C22 C12 C72 119.9(2) . . ?
C62 C12 C72 120.5(2) . . ?
O32 C22 C32 117.3(3) . . ?
O32 C22 C12 123.1(3) . . ?
C32 C22 C12 119.5(3) . . ?
C42 C32 C22 120.7(3) . . ?
C42 C32 H32 119.7 . . ?
C22 C32 H32 119.7 . . ?
C52 C42 C32 118.6(3) . . ?
C52 C42 H42 120.7 . . ?
C32 C42 H42 120.7 . . ?
F12 C52 C42 118.1(3) . . ?
F12 C52 C62 118.9(2) . . ?
C42 C52 C62 123.0(3) . . ?
C52 C62 C12 118.6(2) . . ?
C52 C62 H62 120.7 . . ?
C12 C62 H62 120.7 . . ?
O22 C72 O12 122.7(2) . . ?
O22 C72 C12 121.8(2) . . ?
O12 C72 C12 115.5(2) . . ?

loop_
_geom_torsion_atom_site_label_1
_geom_torsion_atom_site_label_2
_geom_torsion_atom_site_label_3
_geom_torsion_atom_site_label_4
_geom_torsion
_geom_torsion_site_symmetry_1
_geom_torsion_site_symmetry_2
_geom_torsion_site_symmetry_3
_geom_torsion_site_symmetry_4
_geom_torsion_publ_flag
C61 C11 C21 O31 179.7(2) . . . . ?
C71 C11 C21 O31 -1.5(4) . . . . ?
C61 C11 C21 C31 0.2(4) . . . . ?
C71 C11 C21 C31 179.1(2) . . . . ?
O31 C21 C31 C41 -179.1(2) . . . . ?
C11 C21 C31 C41 0.4(4) . . . . ?
C21 C31 C41 C51 -1.1(4) . . . . ?
C31 C41 C51 C61 1.3(4) . . . . ?
C31 C41 C51 F11 -177.7(2) . . . . ?
F11 C51 C61 C11 178.3(2) . . . . ?
C41 C51 C61 C11 -0.7(4) . . . . ?
C21 C11 C61 C51 -0.1(4) . . . . ?
C71 C11 C61 C51 -178.9(2) . . . . ?
C61 C11 C71 O21 -179.1(3) . . . . y
C21 C11 C71 O21 2.1(4) . . . . y
C61 C11 C71 O11 0.6(4) . . . . y
C21 C11 C71 O11 -178.3(2) . . . . y
C62 C12 C22 O32 179.8(2) . . . . ?
C72 C12 C22 O32 -0.2(4) . . . . ?
C62 C12 C22 C32 0.5(4) . . . . ?
C72 C12 C22 C32 -179.6(3) . . . . ?
O32 C22 C32 C42 -179.8(2) . . . . ?
C12 C22 C32 C42 -0.4(4) . . . . ?
C22 C32 C42 C52 0.1(4) . . . . ?
C32 C42 C52 F12 -179.9(2) . . . . ?
C32 C42 C52 C62 0.3(4) . . . . ?
F12 C52 C62 C12 179.9(2) . . . . ?
C42 C52 C62 C12 -0.2(4) . . . . ?
C22 C12 C62 C52 -0.2(4) . . . . ?
C72 C12 C62 C52 179.9(2) . . . . ?
C22 C12 C72 O22 -4.6(4) . . . . y
C62 C12 C72 O22 175.3(2) . . . . y
C22 C12 C72 O12 175.4(2) . . . . y
C62 C12 C72 O12 -4.7(4) . . . . y

loop_
_geom_hbond_atom_site_label_D
_geom_hbond_atom_site_label_H
_geom_hbond_atom_site_label_A
_geom_hbond_distance_DH
_geom_hbond_distance_HA
_geom_hbond_distance_DA
_geom_hbond_angle_DHA
_geom_hbond_site_symmetry_A
_geom_hbond_publ_flag
O11 H11O O21 0.84 1.81 2.643(3) 176 3_665 yes
O31 H31O O21 0.84 1.90 2.620(3) 144 . yes
O31 H31O F11 0.84 2.38 3.028(3) 134 4_575 yes
O12 H12O O22 0.84 1.83 2.659(3) 168 3 yes
O32 H32O O22 0.84 1.88 2.597(3) 143 . yes
O32 H32O F12 0.84 2.64 3.287(3) 135 4_565 yes

_refine_diff_density_max         0.573
_refine_diff_density_min         -0.269
_refine_diff_density_rms         0.078

_shelx_res_file                  
;
TITL m0189c
    m0189c.res
    created by SHELXL-2017/1 at 09:45:17 on 14-Aug-2017
CELL 0.71073 23.17287 3.68017 15.63123 90.0 109.728 90.0
ZERR       8  0.00142 0.00029  0.00078  0.0   0.006  0.0
LATT 1
SYMM -x, y+0.5, 0.5-z
SFAC C H F O
UNIT 56 40 8 24
TEMP -163
L.S. 15
FMAP 2
PLAN -20
ACTA
BOND $H
CONF
EQIV $1 1-x, 1-y, -z
EQIV $2 x, 1.5-y, z-0.5
EQIV $3 -x, -y, -z
EQIV $4 x, 0.5-y, z-0.5
HTAB O11 O21_$1
HTAB O31 O21
HTAB O31 F11_$2
HTAB O12 O22_$3
HTAB O32 O22
HTAB O32 F12_$4
TWIN 1 0 1  0 -1 0  0 0 -1
WGHT    0.073100    0.486800
BASF   0.49483
FVAR       0.73029
F11   3    0.376370    0.428411    0.324257    11.00000    0.03647    0.02929 =
         0.00860    0.00042    0.01259   -0.00064
O11   4    0.494666    0.408655    0.114316    11.00000    0.02026    0.02948 =
         0.01294    0.00540    0.01001    0.00710
AFIX 147
H11O  2    0.518303    0.390822    0.083928    11.00000   -1.50000
AFIX   0
O21   4    0.434698    0.675555   -0.013699    11.00000    0.02154    0.02576 =
         0.01188    0.00683    0.00892    0.00583
O31   4    0.325363    0.906719   -0.025341    11.00000    0.02131    0.02360 =
         0.01409    0.00521    0.00881    0.00514
AFIX 147
H31O  2    0.355419    0.882858   -0.043422    11.00000   -1.50000
AFIX   0
C11   1    0.397563    0.622143    0.109434    11.00000    0.01933    0.01192 =
         0.01042   -0.00221    0.00587   -0.00257
C21   1    0.340678    0.784283    0.061083    11.00000    0.02038    0.01054 =
         0.01171   -0.00344    0.00681   -0.00094
C31   1    0.297152    0.826303    0.103689    11.00000    0.02084    0.01254 =
         0.01704   -0.00039    0.00551    0.00229
AFIX  43
H31   2    0.258631    0.933751    0.071594    11.00000   -1.20000
AFIX   0
C41   1    0.309586    0.713147    0.192009    11.00000    0.01853    0.01684 =
         0.01747   -0.00493    0.01239   -0.00440
AFIX  43
H41   2    0.280138    0.745701    0.221390    11.00000   -1.20000
AFIX   0
C51   1    0.365493    0.551307    0.237582    11.00000    0.02636    0.01581 =
         0.00838   -0.00059    0.00677   -0.00582
C61   1    0.409600    0.504436    0.199379    11.00000    0.02002    0.01311 =
         0.00899   -0.00215    0.00305   -0.00002
AFIX  43
H61   2    0.447691    0.394723    0.232620    11.00000   -1.20000
AFIX   0
C71   1    0.443688    0.570400    0.065120    11.00000    0.01775    0.01258 =
         0.01163   -0.00310    0.00578   -0.00080
F12   3    0.122701   -0.149812    0.448776    11.00000    0.03806    0.03405 =
         0.01195    0.00252    0.01215   -0.00259
O12   4    0.005094   -0.117739    0.118665    11.00000    0.02156    0.03004 =
         0.01216   -0.00005    0.00659   -0.00463
AFIX 147
H12O  2   -0.020011   -0.100787    0.065548    11.00000   -1.50000
AFIX   0
O22   4    0.067000    0.150620    0.054394    11.00000    0.02627    0.02379 =
         0.01289    0.00113    0.00975   -0.00458
O32   4    0.179649    0.293118    0.152916    11.00000    0.02155    0.02994 =
         0.01486    0.00110    0.00946   -0.00501
AFIX 147
H32O  2    0.148360    0.312280    0.106257    11.00000   -1.50000
AFIX   0
C12   1    0.104389    0.050320    0.213483    11.00000    0.02273    0.00959 =
         0.01380   -0.00121    0.00804    0.00172
C22   1    0.162890    0.180370    0.223726    11.00000    0.02020    0.01250 =
         0.01748   -0.00154    0.01029   -0.00015
C32   1    0.207159    0.194323    0.310075    11.00000    0.01793    0.01418 =
         0.01937   -0.00199    0.00559   -0.00291
AFIX  43
H32   2    0.247111    0.281184    0.317137    11.00000   -1.20000
AFIX   0
C42   1    0.193539    0.083090    0.385551    11.00000    0.03079    0.01458 =
         0.01553   -0.00118    0.00606    0.00167
AFIX  43
H42   2    0.223687    0.092787    0.444439    11.00000   -1.20000
AFIX   0
C52   1    0.135727   -0.041226    0.373627    11.00000    0.02898    0.01158 =
         0.01403    0.00144    0.01120    0.00255
C62   1    0.090723   -0.062148    0.290295    11.00000    0.02175    0.01138 =
         0.01672   -0.00155    0.00947   -0.00027
AFIX  43
H62   2    0.051093   -0.150876    0.284567    11.00000   -1.20000
AFIX   0
C72   1    0.057438    0.032139    0.122412    11.00000    0.01999    0.01216 =
         0.01587   -0.00113    0.01005   -0.00064
HKLF 4




REM  m0189c
REM R1 =  0.0473 for    2386 Fo > 4sig(Fo)  and  0.0631 for all    2884 data
REM    204 parameters refined using      0 restraints

END

WGHT      0.0728      0.4978

REM Highest difference peak  0.573,  deepest hole -0.269,  1-sigma level  0.078
Q1    1   0.3781  0.0962  0.3279  11.00000  0.05    0.57
Q2    1   0.0026 -0.4368  0.1191  11.00000  0.05    0.46
Q3    1   0.4933  0.1114  0.1094  11.00000  0.05    0.43
Q4    1   0.1204 -0.4077  0.4485  11.00000  0.05    0.41
Q5    1   0.4296  0.9233 -0.0194  11.00000  0.05    0.40
Q6    1   0.0696  0.3821  0.0470  11.00000  0.05    0.40
Q7    1   0.3670  0.7177  0.0830  11.00000  0.05    0.36
Q8    1   0.1053  0.4049  0.2044  11.00000  0.05    0.35
Q9    1   0.0831  0.0525  0.1682  11.00000  0.05    0.35
Q10   1   0.1834  0.1852  0.2629  11.00000  0.05    0.34
Q11   1   0.0887 -0.4787  0.2889  11.00000  0.05    0.32
Q12   1   0.4100  0.0482  0.2020  11.00000  0.05    0.31
Q13   1   0.4427  0.9745  0.0670  11.00000  0.05    0.30
Q14   1   0.3672  0.9642  0.2324  11.00000  0.05    0.30
Q15   1   0.3156  0.6517 -0.0352  11.00000  0.05    0.30
Q16   1   0.3993  0.8568  0.1178  11.00000  0.05    0.29
Q17   1   0.1117 -0.0197  0.3357  11.00000  0.05    0.28
Q18   1   0.1405  0.4456  0.3680  11.00000  0.05    0.27
Q19   1  -0.0401 -0.2040 -0.0219  11.00000  0.05    0.27
Q20   1  -0.0504 -0.1249 -0.0165  11.00000  0.05    0.27
;
_shelx_res_checksum              70272

loop_
_publcif_info_exptl_table_extra_item
sin_theta_over_lambda_max

loop_
_publcif_info_exptl_table_header_item
?



_publcif_funding_html            
;The X-ray diffractometer has been finanzed by the Netherlands Organization for
Scientific Research (NWO).
;
