
#######################################################################
#
#                 Cambridge Crystallographic Data Centre
#                                CCDC 
#
#######################################################################
#
# If this CIF has been generated from an entry in the Cambridge 
# Structural Database, then it will include bibliographic, chemical, 
# crystal, experimental, refinement or atomic coordinate data resulting 
# from the CCDC's data processing and validation procedures.
#
#######################################################################

data_AAZDCO
_audit_creation_date             1972-10-08
_database_code_depnum_ccdc_archive 'CCDC 1100031'
_database_code_NBS               500023
_database_code_CSD               AAZDCO
_chemical_formula_moiety         'C8 H22 Co1 N6 O4 1+,Br1 1-'
_chemical_name_systematic        
'(+)~546~-trans-Dinitro(1,10-diamino-4,7-diazadecane) cobalt(iii) bromide'
_journal_coden_Cambridge         9
_journal_volume                  11
_journal_year                    1972
_journal_page_first              1376
_journal_name_full               Inorg.Chem.
_journal_paper_doi               10.1021/ic50112a043
loop_
_publ_author_name
N.C.Payne
_diffrn_ambient_temperature      295
_exptl_crystal_density_diffrn    1.842
#These two values have been output from a single CSD field.
_refine_ls_R_factor_gt           0.038
_refine_ls_wR_factor_gt          0.038
_diffrn_radiation_probe          x-ray
_symmetry_cell_setting           monoclinic
_symmetry_space_group_name_H-M   'P 21'
_symmetry_Int_Tables_number      4
_space_group_name_Hall           'P 2yb'
loop_
_symmetry_equiv_pos_site_id
_symmetry_equiv_pos_as_xyz
1 x,y,z
2 -x,1/2+y,-z
_cell_length_a                   7.848(5)
_cell_length_b                   14.756(12)
_cell_length_c                   6.397(5)
_cell_angle_alpha                90
_cell_angle_beta                 99.5(1)
_cell_angle_gamma                90
_cell_volume                     730.645
_cell_formula_units_Z            2
loop_
_atom_site_label
_atom_site_type_symbol
_atom_site_fract_x
_atom_site_fract_y
_atom_site_fract_z
Br1 Br 0.30487 0.47063 0.44233
Co1 Co -0.08396 0.25000 0.21342
C1 C -0.26480 0.43140 0.14510
C2 C -0.38480 0.39430 -0.03870
C3 C -0.43800 0.29870 0.00040
C4 C -0.36220 0.13870 0.02670
C5 C -0.21190 0.07610 0.07230
C6 C 0.07560 0.06300 0.28090
C7 C 0.20800 0.09960 0.45300
C8 C 0.26990 0.19280 0.41730
H1 H -0.03500 0.39700 0.05600
H2 H -0.43700 0.12000 -0.10900
H3 H -0.43100 0.13600 0.14500
H4 H -0.15600 0.07000 -0.05600
H5 H -0.25100 0.01500 0.11400
H6 H -0.14000 0.11400 0.38200
H7 H 0.12400 0.06400 0.14600
H8 H 0.05000 -0.00100 0.31700
H9 H 0.31000 0.05800 0.47100
H10 H 0.15700 0.10000 0.58700
H11 H 0.31200 0.19400 0.27900
H12 H -0.02300 0.40900 0.31100
H13 H 0.36800 0.20700 0.53400
H14 H 0.18700 0.32200 0.38300
H15 H 0.10400 0.26400 0.56000
H16 H -0.24400 0.49700 0.11900
H17 H -0.31900 0.42500 0.27500
H18 H -0.32600 0.39500 -0.16600
H19 H -0.49000 0.43300 -0.06600
H20 H -0.53400 0.28100 -0.11500
H21 H -0.48000 0.29700 0.14000
H22 H -0.24700 0.23800 -0.12700
N1 N -0.09240 0.38280 0.18000
N2 N -0.29710 0.23300 0.00640
N3 N -0.08820 0.11610 0.24950
N4 N 0.13470 0.26230 0.41460
N5 N -0.20330 0.26430 0.45450
N6 N 0.05240 0.24530 -0.01760
O1 O -0.15950 0.32780 0.57920
O2 O -0.31440 0.21150 0.49190
O3 O 0.14340 0.30880 -0.04600
O4 O 0.04180 0.18130 -0.13870
loop_
_geom_bond_atom_site_label_1
_geom_bond_atom_site_label_2
_geom_bond_site_symmetry_1
_geom_bond_site_symmetry_2
Co1 N1 1_555 1_555
C1 C2 1_555 1_555
C2 C3 1_555 1_555
C3 H20 1_555 1_555
C4 C5 1_555 1_555
C5 H4 1_555 1_555
C6 C7 1_555 1_555
C7 C8 1_555 1_555
C8 H11 1_555 1_555
H1 N1 1_555 1_555
H2 C4 1_555 1_555
H3 C4 1_555 1_555
H5 C5 1_555 1_555
H6 N3 1_555 1_555
H7 C6 1_555 1_555
H8 C6 1_555 1_555
H9 C7 1_555 1_555
H10 C7 1_555 1_555
H12 N1 1_555 1_555
H13 C8 1_555 1_555
H14 N4 1_555 1_555
H15 N4 1_555 1_555
H16 C1 1_555 1_555
H17 C1 1_555 1_555
H18 C2 1_555 1_555
H19 C2 1_555 1_555
H21 C3 1_555 1_555
H22 N2 1_555 1_555
N1 C1 1_555 1_555
N2 Co1 1_555 1_555
N3 Co1 1_555 1_555
N4 Co1 1_555 1_555
N5 Co1 1_555 1_555
N6 Co1 1_555 1_555
O1 N5 1_555 1_555
O2 N5 1_555 1_555
O3 N6 1_555 1_555
O4 N6 1_555 1_555
C3 N2 1_555 1_555
C4 N2 1_555 1_555
C5 N3 1_555 1_555
C6 N3 1_555 1_555
C8 N4 1_555 1_555

#END

#######################################################################
#
#                 Cambridge Crystallographic Data Centre
#                                CCDC 
#
#######################################################################
#
# If this CIF has been generated from an entry in the Cambridge 
# Structural Database, then it will include bibliographic, chemical, 
# crystal, experimental, refinement or atomic coordinate data resulting 
# from the CCDC's data processing and validation procedures.
#
#######################################################################

data_ABAFOZ
_audit_creation_date             2004-11-10
_database_code_depnum_ccdc_archive 'CCDC 243847'
_database_code_CSD               ABAFOZ
_chemical_formula_moiety         'C40 H40 N2 O2 Pd1,2(C1 H2 Cl2)'
_chemical_name_systematic        
"(N,N'-Dibenzyl-N,N'-dimethylethylenediamine)-(2,2'-dihydroxy-3,3'-dimethyl-1,1'-binaphthyl)-palladium(ii) dichloromethane solvate"
_journal_coden_Cambridge         579
_journal_volume                  23
_journal_year                    2004
_journal_page_first              3210
_journal_name_full               Organometallics
_journal_paper_doi               10.1021/om0498495
loop_
_publ_author_name
K.A.Pelz
P.S.White
M.R.Gagne
_chemical_absolute_configuration unk
_diffrn_ambient_temperature      173
_exptl_crystal_density_diffrn    1.411
#These two values have been output from a single CSD field.
_refine_ls_R_factor_gt           0.046
_refine_ls_wR_factor_gt          0.046
_diffrn_radiation_probe          x-ray
_symmetry_cell_setting           trigonal
_symmetry_space_group_name_H-M   'P 32'
_symmetry_Int_Tables_number      145
_space_group_name_Hall           'P 32'
loop_
_symmetry_equiv_pos_site_id
_symmetry_equiv_pos_as_xyz
1 x,y,z
2 -y,x-y,2/3+z
3 -x+y,-x,1/3+z
_cell_length_a                   10.4804(6)
_cell_length_b                   10.4804(6)
_cell_length_c                   31.8116(17)
_cell_angle_alpha                90
_cell_angle_beta                 90
_cell_angle_gamma                120
_cell_volume                     3026.02
_cell_formula_units_Z            3
_exptl_crystal_recrystallization_method dichloromethane/hexanes
loop_
_atom_site_label
_atom_site_type_symbol
_atom_site_fract_x
_atom_site_fract_y
_atom_site_fract_z
_atom_site_U_iso_or_equiv
_atom_site_thermal_displace_type
Pd1 Pd 0.53343(4) 0.46662(4) 0.11940 0.0258 Uani
C1 C 0.2068(8) 0.3226(11) 0.1231(3) 0.0720 Uani
N1 N 0.3405(6) 0.4394(6) 0.14479(18) 0.0396 Uani
C2 C 0.3490(10) 0.5854(10) 0.14007(23) 0.0600 Uani
C3 C 0.4153(9) 0.6515(10) 0.09811(23) 0.0578 Uani
N2 N 0.5596(7) 0.6595(6) 0.09416(17) 0.0394 Uani
C4 C 0.6744(11) 0.7927(8) 0.1159(3) 0.0657 Uani
O1 O 0.7430(4) 0.5254(4) 0.10336(12) 0.0262 Uani
O2 O 0.4747(4) 0.2562(4) 0.13527(12) 0.0277 Uani
C5 C 0.3284(6) 0.3946(7) 0.18942(23) 0.0423 Uani
C6 C 0.4487(6) 0.5050(6) 0.21770(18) 0.0281 Uani
C7 C 0.5827(7) 0.5113(7) 0.22004(20) 0.0342 Uani
C8 C 0.6947(7) 0.6156(8) 0.24459(21) 0.0427 Uani
C9 C 0.6728(7) 0.7166(7) 0.26735(21) 0.0450 Uani
C10 C 0.5374(7) 0.7091(7) 0.26591(21) 0.0382 Uani
C11 C 0.4274(7) 0.6057(7) 0.24136(19) 0.0346 Uani
C12 C 0.6065(7) 0.6718(6) 0.04904(21) 0.0398 Uani
C13 C 0.4941(6) 0.5510(6) 0.02065(18) 0.0292 Uani
C14 C 0.3956(7) 0.5735(7) -0.00263(19) 0.0336 Uani
C15 C 0.2900(8) 0.4617(8) -0.02751(21) 0.0411 Uani
C16 C 0.2836(7) 0.3284(7) -0.02835(21) 0.0443 Uani
C17 C 0.3821(8) 0.3050(7) -0.00602(21) 0.0436 Uani
C18 C 0.4893(7) 0.4175(7) 0.01886(20) 0.0334 Uani
C19 C 0.5192(6) 0.1934(6) 0.10594(18) 0.0252 Uani
C20 C 0.6655(5) 0.2288(5) 0.10359(17) 0.0198 Uani
C21 C 0.7138(6) 0.1691(6) 0.07077(17) 0.0244 Uani
C22 C 0.8632(6) 0.2064(6) 0.06615(18) 0.0302 Uani
C23 C 0.9071(7) 0.1496(7) 0.03410(22) 0.0416 Uani
C24 C 0.8056(8) 0.0586(7) 0.00439(20) 0.0406 Uani
C25 C 0.6628(7) 0.0205(6) 0.00662(18) 0.0348 Uani
C26 C 0.6099(7) 0.0720(6) 0.04076(18) 0.0263 Uani
C27 C 0.4608(7) 0.0300(6) 0.04639(19) 0.0289 Uani
C28 C 0.4126(6) 0.0850(6) 0.07756(19) 0.0279 Uani
C29 C 0.2529(7) 0.0398(7) 0.0816(3) 0.0503 Uani
C30 C 0.8077(6) 0.4808(6) 0.13305(18) 0.0253 Uani
C31 C 0.7719(6) 0.3346(6) 0.13467(17) 0.0210 Uani
C32 C 0.8304(5) 0.2857(6) 0.16771(16) 0.0234 Uani
C33 C 0.7928(6) 0.1364(6) 0.17235(19) 0.0310 Uani
C34 C 0.8504(7) 0.0924(7) 0.20477(21) 0.0393 Uani
C35 C 0.9418(7) 0.1946(8) 0.23441(21) 0.0437 Uani
C36 C 0.9783(6) 0.3371(7) 0.23160(19) 0.0368 Uani
C37 C 0.9281(6) 0.3904(7) 0.19810(18) 0.0272 Uani
C38 C 0.9704(6) 0.5394(7) 0.19257(19) 0.0304 Uani
C39 C 0.9137(6) 0.5857(6) 0.16125(19) 0.0292 Uani
C40 C 0.9603(7) 0.7459(7) 0.15726(24) 0.0473 Uani
H1 H 0.202 0.229 0.124 0.0842 Uiso
H2 H 0.122 0.316 0.137 0.0842 Uiso
H3 H 0.209 0.351 0.094 0.0842 Uiso
H4 H 0.409 0.651 0.162 0.0882 Uiso
H5 H 0.251 0.571 0.142 0.0882 Uiso
H6 H 0.425 0.747 0.095 0.0832 Uiso
H7 H 0.351 0.586 0.077 0.0832 Uiso
H8 H 0.769 0.801 0.113 0.0768 Uiso
H9 H 0.676 0.878 0.104 0.0768 Uiso
H10 H 0.651 0.785 0.145 0.0768 Uiso
H11 H 0.236 0.381 0.199 0.0532 Uiso
H12 H 0.328 0.303 0.191 0.0532 Uiso
H13 H 0.595 0.438 0.206 0.0451 Uiso
H14 H 0.789 0.621 0.245 0.0559 Uiso
H15 H 0.751 0.790 0.284 0.0515 Uiso
H16 H 0.521 0.779 0.281 0.0519 Uiso
H17 H 0.333 0.599 0.241 0.0461 Uiso
H18 H 0.698 0.671 0.048 0.0500 Uiso
H19 H 0.621 0.763 0.038 0.0500 Uiso
H20 H 0.400 0.667 -0.002 0.0450 Uiso
H21 H 0.224 0.478 -0.044 0.0542 Uiso
H22 H 0.207 0.249 -0.044 0.0505 Uiso
H23 H 0.377 0.211 -0.007 0.0549 Uiso
H24 H 0.560 0.402 0.034 0.0452 Uiso
H25 H 0.933 0.269 0.087 0.0421 Uiso
H26 H 1.009 0.178 0.032 0.0518 Uiso
H27 H 0.837 0.018 -0.018 0.0523 Uiso
H28 H 0.595 -0.038 -0.015 0.0437 Uiso
H29 H 0.388 -0.042 0.028 0.0370 Uiso
H30 H 0.243 0.092 0.105 0.0553 Uiso
H31 H 0.217 0.062 0.057 0.0553 Uiso
H32 H 0.197 -0.064 0.087 0.0553 Uiso
H33 H 0.730 0.066 0.152 0.0437 Uiso
H34 H 0.824 -0.009 0.208 0.0505 Uiso
H35 H 0.978 0.163 0.257 0.0553 Uiso
H36 H 1.043 0.405 0.252 0.0464 Uiso
H37 H 1.038 0.611 0.212 0.0393 Uiso
H38 H 0.914 0.762 0.134 0.0524 Uiso
H39 H 0.931 0.774 0.182 0.0524 Uiso
H40 H 1.065 0.804 0.154 0.0524 Uiso
C41 C 0.5994(9) 0.0753(8) 0.3567(3) 0.0548 Uani
Cl1 Cl 0.52493(24) -0.09988(22) 0.37954(8) 0.0703 Uani
Cl2 Cl 0.7195(3) 0.1031(3) 0.31553(8) 0.0865 Uani
H41 H 0.651 0.149 0.378 0.0500 Uiso
H42 H 0.520 0.086 0.346 0.0500 Uiso
C42 C 0.4744(8) 0.0752(8) 0.21500(24) 0.0520 Uani
Cl3 Cl 0.3841(3) 0.1039(3) 0.25664(8) 0.0851 Uani
Cl4 Cl 0.3752(3) -0.09991(22) 0.19264(8) 0.0693 Uani
H43 H 0.567 0.088 0.225 0.0456 Uiso
H44 H 0.494 0.147 0.194 0.0455 Uiso
loop_
_atom_site_aniso_label
_atom_site_aniso_U_11
_atom_site_aniso_U_22
_atom_site_aniso_U_33
_atom_site_aniso_U_23
_atom_site_aniso_U_13
_atom_site_aniso_U_12
Pd1 0.03223(25) 0.03202(25) 0.02089(21) -0.00569(18) -0.00581(18) 0.02180(20)
C1 0.034(4) 0.125(7) 0.064(6) -0.057(5) -0.021(4) 0.045(4)
N1 0.038(3) 0.059(3) 0.032(3) -0.020(3) -0.0125(24) 0.032(3)
C2 0.100(6) 0.102(6) 0.032(4) -0.018(4) -0.016(4) 0.091(6)
C3 0.090(6) 0.101(6) 0.028(4) -0.018(4) -0.019(4) 0.082(5)
N2 0.064(4) 0.039(3) 0.033(3) -0.0111(24) -0.020(3) 0.039(3)
C4 0.109(7) 0.035(4) 0.057(5) -0.021(3) -0.044(5) 0.039(4)
O1 0.0298(19) 0.0253(19) 0.0240(22) 0.0060(16) 0.0027(16) 0.0141(16)
O2 0.0295(20) 0.0288(19) 0.0262(22) 0.0028(16) 0.0078(16) 0.0156(17)
C5 0.028(3) 0.050(4) 0.051(5) -0.017(3) -0.003(3) 0.021(3)
C6 0.031(3) 0.036(3) 0.019(3) -0.0027(25) 0.0030(24) 0.018(3)
C7 0.040(3) 0.038(3) 0.028(4) 0.003(3) -0.001(3) 0.022(3)
C8 0.045(4) 0.065(4) 0.028(4) -0.003(3) -0.006(3) 0.035(3)
C9 0.051(4) 0.047(4) 0.027(4) -0.004(3) -0.008(3) 0.017(3)
C10 0.054(4) 0.044(4) 0.028(4) -0.004(3) 0.001(3) 0.033(3)
C11 0.042(3) 0.046(3) 0.021(3) -0.002(3) 0.002(3) 0.026(3)
C12 0.047(4) 0.031(3) 0.042(4) -0.002(3) -0.014(3) 0.020(3)
C13 0.038(3) 0.030(3) 0.021(3) 0.0039(24) 0.006(3) 0.018(3)
C14 0.046(3) 0.037(3) 0.022(3) 0.000(3) 0.002(3) 0.024(3)
C15 0.049(4) 0.058(4) 0.026(4) 0.000(3) -0.001(3) 0.034(4)
C16 0.045(4) 0.047(4) 0.029(4) -0.009(3) -0.003(3) 0.014(3)
C17 0.069(5) 0.042(4) 0.024(4) -0.006(3) -0.002(3) 0.031(3)
C18 0.043(3) 0.039(3) 0.023(3) -0.003(3) -0.002(3) 0.024(3)
C19 0.033(3) 0.025(3) 0.018(3) -0.0037(22) -0.0051(23) 0.0147(24)
C20 0.022(3) 0.0187(24) 0.020(3) 0.0003(21) 0.0000(22) 0.0112(21)
C21 0.029(3) 0.024(3) 0.018(3) -0.0004(21) -0.0047(22) 0.0116(23)
C22 0.035(3) 0.037(3) 0.024(3) 0.0007(25) 0.0047(24) 0.022(3)
C23 0.042(3) 0.053(4) 0.030(4) 0.003(3) 0.009(3) 0.024(3)
C24 0.065(4) 0.043(4) 0.019(3) -0.001(3) 0.015(3) 0.031(3)
C25 0.059(4) 0.027(3) 0.015(3) -0.0019(23) -0.003(3) 0.019(3)
C26 0.040(3) 0.023(3) 0.016(3) -0.0012(22) -0.0028(24) 0.0159(24)
C27 0.033(3) 0.018(3) 0.030(4) -0.0029(24) -0.014(3) 0.0085(24)
C28 0.027(3) 0.020(3) 0.029(3) -0.0004(24) -0.010(3) 0.0059(23)
C29 0.030(3) 0.040(4) 0.067(5) -0.010(3) -0.012(3) 0.007(3)
C30 0.026(3) 0.024(3) 0.022(3) -0.0042(23) 0.0025(23) 0.0096(23)
C31 0.022(3) 0.023(3) 0.021(3) 0.0029(22) -0.0001(22) 0.0135(22)
C32 0.023(3) 0.030(3) 0.015(3) -0.0009(22) 0.0005(21) 0.0116(23)
C33 0.038(3) 0.033(3) 0.029(3) 0.005(3) 0.003(3) 0.023(3)
C34 0.048(4) 0.043(3) 0.030(4) 0.010(3) 0.003(3) 0.025(3)
C35 0.046(4) 0.067(5) 0.023(4) 0.015(3) 0.003(3) 0.032(4)
C36 0.028(3) 0.059(4) 0.021(3) -0.003(3) -0.0007(25) 0.020(3)
C37 0.023(3) 0.041(3) 0.019(3) -0.0084(25) -0.0053(22) 0.0170(25)
C38 0.021(3) 0.041(4) 0.026(3) -0.011(3) -0.0019(24) 0.013(3)
C39 0.022(3) 0.027(3) 0.032(4) -0.007(3) 0.0043(24) 0.0074(23)
C40 0.041(4) 0.028(3) 0.058(5) -0.010(3) -0.010(3) 0.006(3)
C41 0.061(5) 0.050(4) 0.051(5) -0.003(3) 0.011(4) 0.026(4)
Cl1 0.0675(13) 0.0481(11) 0.0807(17) -0.0022(10) 0.0075(11) 0.0179(10)
Cl2 0.0729(14) 0.0873(15) 0.0679(16) -0.0247(13) 0.0254(11) 0.0164(12)
C42 0.063(4) 0.056(4) 0.040(5) 0.010(3) 0.017(4) 0.032(4)
Cl3 0.1225(20) 0.0874(15) 0.0655(16) 0.0247(13) 0.0474(15) 0.0675(16)
Cl4 0.0753(14) 0.0452(10) 0.0839(17) 0.0034(10) 0.0106(12) 0.0274(10)
loop_
_geom_bond_atom_site_label_1
_geom_bond_atom_site_label_2
_geom_bond_site_symmetry_1
_geom_bond_site_symmetry_2
Pd1 N1 1_555 1_555
C1 N1 1_555 1_555
N1 C2 1_555 1_555
C2 C3 1_555 1_555
C3 N2 1_555 1_555
N2 Pd1 1_555 1_555
C4 N2 1_555 1_555
O1 Pd1 1_555 1_555
O2 Pd1 1_555 1_555
C5 N1 1_555 1_555
C6 C5 1_555 1_555
C7 C6 1_555 1_555
C8 C7 1_555 1_555
C9 C8 1_555 1_555
C10 C9 1_555 1_555
C11 C6 1_555 1_555
C12 N2 1_555 1_555
C13 C12 1_555 1_555
C14 C13 1_555 1_555
C15 C14 1_555 1_555
C16 C15 1_555 1_555
C17 C16 1_555 1_555
C18 C13 1_555 1_555
C19 O2 1_555 1_555
C20 C19 1_555 1_555
C21 C20 1_555 1_555
C22 C21 1_555 1_555
C23 C22 1_555 1_555
C24 C23 1_555 1_555
C25 C24 1_555 1_555
C26 C21 1_555 1_555
C27 C26 1_555 1_555
C28 C19 1_555 1_555
C29 C28 1_555 1_555
C30 O1 1_555 1_555
C31 C20 1_555 1_555
C32 C31 1_555 1_555
C33 C32 1_555 1_555
C34 C33 1_555 1_555
C35 C34 1_555 1_555
C36 C35 1_555 1_555
C37 C32 1_555 1_555
C38 C37 1_555 1_555
C39 C30 1_555 1_555
C40 C39 1_555 1_555
H1 C1 1_555 1_555
H2 C1 1_555 1_555
H3 C1 1_555 1_555
H4 C2 1_555 1_555
H5 C2 1_555 1_555
H6 C3 1_555 1_555
H7 C3 1_555 1_555
H8 C4 1_555 1_555
H9 C4 1_555 1_555
H10 C4 1_555 1_555
H11 C5 1_555 1_555
H12 C5 1_555 1_555
H13 C7 1_555 1_555
H14 C8 1_555 1_555
H15 C9 1_555 1_555
H16 C10 1_555 1_555
H17 C11 1_555 1_555
H18 C12 1_555 1_555
H19 C12 1_555 1_555
H20 C14 1_555 1_555
H21 C15 1_555 1_555
H22 C16 1_555 1_555
H23 C17 1_555 1_555
H24 C18 1_555 1_555
H25 C22 1_555 1_555
H26 C23 1_555 1_555
H27 C24 1_555 1_555
H28 C25 1_555 1_555
H29 C27 1_555 1_555
H30 C29 1_555 1_555
H31 C29 1_555 1_555
H32 C29 1_555 1_555
H33 C33 1_555 1_555
H34 C34 1_555 1_555
H35 C35 1_555 1_555
H36 C36 1_555 1_555
H37 C38 1_555 1_555
H38 C40 1_555 1_555
H39 C40 1_555 1_555
H40 C40 1_555 1_555
C41 Cl1 1_555 1_555
Cl2 C41 1_555 1_555
H41 C41 1_555 1_555
H42 C41 1_555 1_555
C42 Cl3 1_555 1_555
Cl4 C42 1_555 1_555
H43 C42 1_555 1_555
H44 C42 1_555 1_555
C10 C11 1_555 1_555
C17 C18 1_555 1_555
C25 C26 1_555 1_555
C27 C28 1_555 1_555
C30 C31 1_555 1_555
C36 C37 1_555 1_555
C38 C39 1_555 1_555

#END

#######################################################################
#
#                 Cambridge Crystallographic Data Centre
#                                CCDC 
#
#######################################################################
#
# If this CIF has been generated from an entry in the Cambridge 
# Structural Database, then it will include bibliographic, chemical, 
# crystal, experimental, refinement or atomic coordinate data resulting 
# from the CCDC's data processing and validation procedures.
#
#######################################################################

data_ABAFUF
_audit_creation_date             2004-11-10
_database_code_depnum_ccdc_archive 'CCDC 243848'
_database_code_CSD               ABAFUF
_chemical_name_common            
'Teaching Subset: Fundamental Chemistry, Symmetry'
_chemical_formula_moiety         'C18 H24 Cl2 N2 Pd1'
_chemical_name_systematic        
(R,R)-Dichloro-(N,N'-dibenzyl-N,N'-dimethylethylenediamine)-palladium(ii)
_journal_coden_Cambridge         579
_journal_volume                  23
_journal_year                    2004
_journal_page_first              3210
_journal_name_full               Organometallics
_journal_paper_doi               10.1021/om0498495
loop_
_publ_author_name
K.A.Pelz
P.S.White
M.R.Gagne
_chemical_absolute_configuration unk
_diffrn_ambient_temperature      173
_exptl_crystal_density_diffrn    1.539
#These two values have been output from a single CSD field.
_refine_ls_R_factor_gt           0.028
_refine_ls_wR_factor_gt          0.028
_diffrn_radiation_probe          x-ray
_symmetry_cell_setting           monoclinic
_symmetry_space_group_name_H-M   'P c'
_symmetry_Int_Tables_number      7
_space_group_name_Hall           'P -2yc'
loop_
_symmetry_equiv_pos_site_id
_symmetry_equiv_pos_as_xyz
1 x,y,z
2 x,-y,1/2+z
_cell_length_a                   14.8129(3)
_cell_length_b                   9.52300(20)
_cell_length_c                   14.1217(3)
_cell_angle_alpha                90
_cell_angle_beta                 105.076(1)
_cell_angle_gamma                90
_cell_volume                     1923.49
_exptl_crystal_colour            yellow
_exptl_crystal_description       block
_cell_formula_units_Z            4
_exptl_crystal_recrystallization_method dichloromethane/hexanes
loop_
_atom_site_label
_atom_site_type_symbol
_atom_site_fract_x
_atom_site_fract_y
_atom_site_fract_z
_atom_site_U_iso_or_equiv
_atom_site_thermal_displace_type
Pd1 Pd 0.36742 0.419637(22) 0.25696 0.0173 Uani
Cl1 Cl 0.27133(7) 0.31830(9) 0.34246(7) 0.0343 Uani
Cl2 Cl 0.49828(7) 0.35337(8) 0.37690(7) 0.0329 Uani
C1 C 0.2141(3) 0.6093(4) 0.1867(4) 0.0434 Uani
N1 N 0.25297(20) 0.4837(3) 0.14623(20) 0.0236 Uani
C2 C 0.2899(3) 0.5242(4) 0.0608(3) 0.0332 Uani
C3 C 0.3803(3) 0.6027(4) 0.0971(3) 0.0343 Uani
N2 N 0.44701(21) 0.5189(3) 0.17488(21) 0.0239 Uani
C4 C 0.4907(3) 0.4056(4) 0.1284(4) 0.0407 Uani
C5 C 0.17347(24) 0.3802(4) 0.1116(3) 0.0277 Uani
C6 C 0.19776(22) 0.2511(3) 0.0606(3) 0.0260 Uani
C7 C 0.2523(3) 0.1434(4) 0.1138(3) 0.0317 Uani
C8 C 0.2695(3) 0.0239(4) 0.0653(4) 0.0411 Uani
C9 C 0.2324(3) 0.0077(5) -0.0344(4) 0.0461 Uani
C10 C 0.1769(3) 0.1140(5) -0.0870(3) 0.0447 Uani
C11 C 0.1601(3) 0.2336(4) -0.0394(3) 0.0361 Uani
C12 C 0.5244(3) 0.6137(4) 0.2301(3) 0.0282 Uani
C13 C 0.49032(25) 0.7395(3) 0.2757(3) 0.0236 Uani
C14 C 0.4554(3) 0.7282(3) 0.3578(3) 0.0275 Uani
C15 C 0.4248(3) 0.8454(4) 0.3992(3) 0.0327 Uani
C16 C 0.4311(3) 0.9783(4) 0.3597(3) 0.0351 Uani
C17 C 0.4669(3) 0.9912(4) 0.2804(3) 0.0336 Uani
C18 C 0.4969(3) 0.8734(4) 0.2375(3) 0.0288 Uani
H1 H 0.191 0.580 0.241 0.0502 Uiso
H2 H 0.262 0.679 0.208 0.0502 Uiso
H3 H 0.163 0.648 0.137 0.0502 Uiso
H4 H 0.300 0.441 0.026 0.0417 Uiso
H5 H 0.245 0.583 0.018 0.0417 Uiso
H6 H 0.369 0.692 0.123 0.0432 Uiso
H7 H 0.408 0.617 0.043 0.0432 Uiso
H8 H 0.532 0.352 0.179 0.0544 Uiso
H9 H 0.443 0.345 0.090 0.0544 Uiso
H10 H 0.525 0.447 0.086 0.0544 Uiso
H11 H 0.122 0.428 0.067 0.0362 Uiso
H12 H 0.154 0.349 0.168 0.0362 Uiso
H13 H 0.277 0.153 0.183 0.0406 Uiso
H14 H 0.307 -0.050 0.102 0.0509 Uiso
H15 H 0.245 -0.075 -0.067 0.0579 Uiso
H16 H 0.151 0.105 -0.156 0.0551 Uiso
H17 H 0.121 0.306 -0.075 0.0455 Uiso
H18 H 0.566 0.560 0.281 0.0385 Uiso
H19 H 0.558 0.647 0.185 0.0385 Uiso
H20 H 0.453 0.637 0.387 0.0368 Uiso
H21 H 0.400 0.835 0.455 0.0436 Uiso
H22 H 0.410 1.060 0.387 0.0445 Uiso
H23 H 0.472 1.083 0.254 0.0425 Uiso
H24 H 0.522 0.884 0.182 0.0386 Uiso
Pd2 Pd 0.834050(19) 0.083268(22) 0.614726(19) 0.0178 Uani
Cl3 Cl 0.93421(8) 0.18070(10) 0.75136(7) 0.0386 Uani
Cl4 Cl 0.70721(7) 0.15266(8) 0.66835(8) 0.0337 Uani
C19 C 0.9856(3) -0.1059(4) 0.6218(4) 0.0427 Uani
N3 N 0.94502(20) 0.0181(3) 0.56134(22) 0.0256 Uani
C20 C 0.9049(3) -0.0221(4) 0.4573(3) 0.0398 Uani
C21 C 0.8145(3) -0.0981(4) 0.4459(3) 0.0388 Uani
N4 N 0.75065(21) -0.0108(3) 0.48992(21) 0.0250 Uani
C22 C 0.7080(3) 0.1066(4) 0.4218(3) 0.0423 Uani
C23 C 1.0246(3) 0.1202(4) 0.5685(3) 0.0320 Uani
C24 C 0.99919(24) 0.2498(4) 0.5061(3) 0.0303 Uani
C25 C 0.9439(3) 0.3564(4) 0.5305(3) 0.0361 Uani
C26 C 0.9242(3) 0.4754(4) 0.4717(4) 0.0486 Uani
C27 C 0.9592(4) 0.4937(5) 0.3921(4) 0.0540 Uani
C28 C 1.0159(4) 0.3899(6) 0.3689(4) 0.0589 Uani
C29 C 1.0350(3) 0.2695(5) 0.4246(3) 0.0427 Uani
C30 C 0.6708(3) -0.1010(3) 0.5028(3) 0.0287 Uani
C31 C 0.7011(3) -0.2312(4) 0.5636(3) 0.0257 Uani
C32 C 0.7359(3) -0.2249(3) 0.6653(3) 0.0297 Uani
C33 C 0.7643(3) -0.3449(4) 0.7205(3) 0.0408 Uani
C34 C 0.7556(3) -0.4764(4) 0.6743(3) 0.0391 Uani
C35 C 0.7191(3) -0.4847(4) 0.5746(4) 0.0387 Uani
C36 C 0.6925(3) -0.3629(4) 0.5189(3) 0.0317 Uani
H25 H 1.010 -0.077 0.689 0.0548 Uiso
H26 H 0.938 -0.176 0.619 0.0548 Uiso
H27 H 1.035 -0.145 0.597 0.0548 Uiso
H28 H 0.894 0.061 0.418 0.0528 Uiso
H29 H 0.949 -0.081 0.436 0.0528 Uiso
H30 H 0.826 -0.187 0.479 0.0506 Uiso
H31 H 0.785 -0.114 0.378 0.0506 Uiso
H32 H 0.668 0.161 0.452 0.0493 Uiso
H33 H 0.756 0.166 0.410 0.0493 Uiso
H34 H 0.672 0.069 0.361 0.0493 Uiso
H35 H 1.046 0.150 0.636 0.0428 Uiso
H36 H 1.074 0.072 0.549 0.0428 Uiso
H37 H 0.921 0.347 0.588 0.0463 Uiso
H38 H 0.884 0.546 0.487 0.0568 Uiso
H39 H 0.945 0.577 0.353 0.0602 Uiso
H40 H 1.042 0.402 0.314 0.0676 Uiso
H41 H 1.074 0.198 0.408 0.0530 Uiso
H42 H 0.634 -0.045 0.535 0.0371 Uiso
H43 H 0.634 -0.129 0.439 0.0371 Uiso
H44 H 0.739 -0.136 0.698 0.0394 Uiso
H45 H 0.789 -0.338 0.790 0.0495 Uiso
H46 H 0.776 -0.560 0.712 0.0487 Uiso
H47 H 0.710 -0.575 0.543 0.0488 Uiso
H48 H 0.669 -0.369 0.449 0.0406 Uiso
loop_
_atom_site_aniso_label
_atom_site_aniso_U_11
_atom_site_aniso_U_22
_atom_site_aniso_U_33
_atom_site_aniso_U_23
_atom_site_aniso_U_13
_atom_site_aniso_U_12
Pd1 0.02088(14) 0.01582(12) 0.01486(14) -0.00017(9) 0.00386(11) -0.00022(10)
Cl1 0.0454(5) 0.0386(4) 0.0229(4) -0.0001(3) 0.0160(4) -0.0128(4)
Cl2 0.0348(5) 0.0245(4) 0.0312(5) 0.0012(3) -0.0061(4) 0.0058(3)
C1 0.0336(22) 0.0296(18) 0.058(3) -0.0115(19) -0.0044(21) 0.0112(17)
N1 0.0235(14) 0.0214(13) 0.0229(15) 0.0023(11) 0.0008(12) -0.0008(11)
C2 0.0422(22) 0.0361(18) 0.0170(17) 0.0059(15) 0.0000(15) -0.0117(17)
C3 0.0406(24) 0.0382(19) 0.0208(19) 0.0063(15) 0.0023(17) -0.0123(17)
N2 0.0285(16) 0.0251(13) 0.0206(14) -0.0061(11) 0.0110(12) -0.0070(12)
C4 0.0398(23) 0.0406(20) 0.053(3) -0.0243(19) 0.0321(21) -0.0147(17)
C5 0.0206(16) 0.0280(16) 0.0301(19) -0.0048(14) -0.0013(14) -0.0001(14)
C6 0.0171(15) 0.0302(17) 0.0310(18) -0.0089(15) 0.0069(13) -0.0072(14)
C7 0.0250(18) 0.0317(18) 0.0350(20) -0.0084(16) 0.0017(15) -0.0068(15)
C8 0.0308(21) 0.0292(18) 0.063(3) -0.0132(19) 0.0114(20) -0.0030(17)
C9 0.0309(24) 0.046(3) 0.067(3) -0.0321(24) 0.0228(23) -0.0151(20)
C10 0.0383(23) 0.063(3) 0.0334(23) -0.0183(21) 0.0105(19) -0.0133(21)
C11 0.0307(20) 0.0460(21) 0.0298(20) -0.0065(17) 0.0047(16) -0.0045(17)
C12 0.0228(18) 0.0312(16) 0.0316(20) -0.0066(15) 0.0088(15) -0.0042(14)
C13 0.0184(17) 0.0197(16) 0.0312(22) -0.0030(14) 0.0040(15) -0.0038(13)
C14 0.0278(18) 0.0192(15) 0.0334(19) -0.0027(13) 0.0042(15) -0.0021(13)
C15 0.0350(20) 0.0314(18) 0.0345(21) -0.0024(15) 0.0139(17) 0.0030(15)
C16 0.0317(20) 0.0243(17) 0.0475(25) -0.0081(16) 0.0071(18) 0.0028(15)
C17 0.0292(21) 0.0188(17) 0.049(3) 0.0047(16) 0.0031(19) -0.0011(15)
C18 0.0277(19) 0.0294(16) 0.0287(19) 0.0004(15) 0.0065(15) -0.0059(15)
Pd2 0.01969(14) 0.01722(12) 0.01697(14) -0.00147(10) 0.00566(11) -0.00027(10)
Cl3 0.0471(6) 0.0463(5) 0.0197(4) -0.0076(4) 0.0041(4) -0.0174(4)
Cl4 0.0357(5) 0.0250(4) 0.0482(6) -0.0009(4) 0.0250(4) 0.0052(4)
C19 0.0421(25) 0.0294(18) 0.063(3) 0.0073(19) 0.0253(24) 0.0089(17)
N3 0.0256(15) 0.0233(13) 0.0315(16) -0.0014(12) 0.0139(13) -0.0012(12)
C20 0.053(3) 0.0413(20) 0.0341(22) -0.0149(18) 0.0276(20) -0.0137(19)
C21 0.051(3) 0.0414(21) 0.0289(22) -0.0175(16) 0.0191(20) -0.0171(18)
N4 0.0300(16) 0.0228(13) 0.0200(14) 0.0016(11) 0.0028(12) -0.0081(12)
C22 0.050(3) 0.0398(20) 0.0279(21) 0.0118(17) -0.0061(19) -0.0132(18)
C23 0.0189(16) 0.0353(18) 0.0440(23) 0.0038(16) 0.0119(16) -0.0022(14)
C24 0.0214(17) 0.0392(18) 0.0292(19) 0.0016(15) 0.0048(14) -0.0071(15)
C25 0.0305(20) 0.0329(19) 0.0454(24) 0.0064(17) 0.0105(18) -0.0054(16)
C26 0.0349(23) 0.0348(21) 0.071(3) 0.0116(21) 0.0046(23) -0.0046(19)
C27 0.040(3) 0.052(3) 0.058(3) 0.0266(25) -0.0089(24) -0.0197(23)
C28 0.048(3) 0.088(4) 0.037(3) 0.021(3) 0.0042(22) -0.024(3)
C29 0.0378(22) 0.056(3) 0.0351(22) 0.0071(19) 0.0110(18) -0.0117(20)
C30 0.0223(17) 0.0257(16) 0.0332(20) 0.0042(14) -0.0018(15) -0.0066(13)
C31 0.0201(17) 0.0234(16) 0.0321(21) 0.0019(14) 0.0043(15) -0.0054(13)
C32 0.0358(20) 0.0225(16) 0.0298(20) -0.0008(14) 0.0068(17) 0.0001(14)
C33 0.056(3) 0.0297(19) 0.0332(22) 0.0033(16) 0.0052(20) 0.0006(18)
C34 0.0470(24) 0.0213(17) 0.048(3) 0.0035(16) 0.0103(20) 0.0018(17)
C35 0.0410(25) 0.0198(18) 0.056(3) -0.0083(17) 0.0137(22) -0.0045(17)
C36 0.0336(20) 0.0274(16) 0.0309(20) -0.0039(15) 0.0027(16) -0.0062(15)
loop_
_geom_bond_atom_site_label_1
_geom_bond_atom_site_label_2
_geom_bond_site_symmetry_1
_geom_bond_site_symmetry_2
Pd1 Cl1 1_555 1_555
Cl2 Pd1 1_555 1_555
C1 N1 1_555 1_555
N1 Pd1 1_555 1_555
C2 N1 1_555 1_555
C3 C2 1_555 1_555
N2 Pd1 1_555 1_555
C4 N2 1_555 1_555
C5 N1 1_555 1_555
C6 C5 1_555 1_555
C7 C6 1_555 1_555
C8 C7 1_555 1_555
C9 C8 1_555 1_555
C10 C9 1_555 1_555
C11 C6 1_555 1_555
C12 N2 1_555 1_555
C13 C12 1_555 1_555
C14 C13 1_555 1_555
C15 C14 1_555 1_555
C16 C15 1_555 1_555
C17 C16 1_555 1_555
C18 C13 1_555 1_555
H1 C1 1_555 1_555
H2 C1 1_555 1_555
H3 C1 1_555 1_555
H4 C2 1_555 1_555
H5 C2 1_555 1_555
H6 C3 1_555 1_555
H7 C3 1_555 1_555
H8 C4 1_555 1_555
H9 C4 1_555 1_555
H10 C4 1_555 1_555
H11 C5 1_555 1_555
H12 C5 1_555 1_555
H13 C7 1_555 1_555
H14 C8 1_555 1_555
H15 C9 1_555 1_555
H16 C10 1_555 1_555
H17 C11 1_555 1_555
H18 C12 1_555 1_555
H19 C12 1_555 1_555
H20 C14 1_555 1_555
H21 C15 1_555 1_555
H22 C16 1_555 1_555
H23 C17 1_555 1_555
H24 C18 1_555 1_555
Pd2 Cl3 1_555 1_555
Cl4 Pd2 1_555 1_555
C19 N3 1_555 1_555
N3 Pd2 1_555 1_555
C20 N3 1_555 1_555
C21 C20 1_555 1_555
N4 Pd2 1_555 1_555
C22 N4 1_555 1_555
C23 N3 1_555 1_555
C24 C23 1_555 1_555
C25 C24 1_555 1_555
C26 C25 1_555 1_555
C27 C26 1_555 1_555
C28 C27 1_555 1_555
C29 C24 1_555 1_555
C30 N4 1_555 1_555
C31 C30 1_555 1_555
C32 C31 1_555 1_555
C33 C32 1_555 1_555
C34 C33 1_555 1_555
C35 C34 1_555 1_555
C36 C31 1_555 1_555
H25 C19 1_555 1_555
H26 C19 1_555 1_555
H27 C19 1_555 1_555
H28 C20 1_555 1_555
H29 C20 1_555 1_555
H30 C21 1_555 1_555
H31 C21 1_555 1_555
H32 C22 1_555 1_555
H33 C22 1_555 1_555
H34 C22 1_555 1_555
H35 C23 1_555 1_555
H36 C23 1_555 1_555
H37 C25 1_555 1_555
H38 C26 1_555 1_555
H39 C27 1_555 1_555
H40 C28 1_555 1_555
H41 C29 1_555 1_555
H42 C30 1_555 1_555
H43 C30 1_555 1_555
H44 C32 1_555 1_555
H45 C33 1_555 1_555
H46 C34 1_555 1_555
H47 C35 1_555 1_555
H48 C36 1_555 1_555
C3 N2 1_555 1_555
C10 C11 1_555 1_555
C17 C18 1_555 1_555
C21 N4 1_555 1_555
C28 C29 1_555 1_555
C35 C36 1_555 1_555

#END
